292 275 274 273 272 271 267 268 269 270 293 294 295 296 297 298 266 265 264 263 262 261 260 259 258 299 300 257 256 255 253 254 252 251 250 249 248 241 242 243 244 245 247 246 238 239 240 237 236 235 234 232 233 231 230 229 228 227 189 225 226 190 191 192 193 219 218 220 221 222 224 223 217 216 215 214 213 212 211 210 209 194 195 196 197 205 206 207 208 198 199 200 201 202 204 203 165 164 166 167 163 162 168 169 171 170 172 175 174 173 108 109 107 542 541 543 544 545 546 547 103 104 105 106 117 116 115 114 110 111 112 113 161 160 159 156 155 154 153 157 158 145 146 144 143 142 147 148 152 149 150 151 141 140 139 136 135 134 133 132 131 130 129 137 138 128 127 126 125 124 69 70 68 67 66 65 72 71 123 122 121 120 118 119 73 74 75 64 76 77 78 62 63 60 61 79 80 81 59 58 57 82 83 56 55 53 54 52 50 51 84 85 86 87 88 89 90 92 91 93 94 95 96 97 98 99 100 102 101 551 550 559 558 557 552 553 554 556 555 45 46 49 48 47 44 43 42 39 41 40 38 37 36 35 34 33 32 30 31 29 28 27 26 25 24 21 22 23 12 13 14 15 16 11 10 9 7 8 17 18 19 20 568 569 570 571 573 572 6 5 0 4 1 2 3 455 456 457 458 459 460 461 462 463 464 465 466 467 468 469 470 496 497 495 494 471 472 473 474 567 566 565 564 563 562 561 560 549 548 478 477 479 480 476 475 482 481 483 484 485 486 487 535 536 537 539 538 540 176 177 178 179 180 181 184 185 183 182 186 187 188 534 488 489 533 532 531 530 529 490 491 492 493 524 525 526 523 521 522 527 528 511 510 509 512 513 514 515 516 517 520 518 519 498 502 503 504 506 507 508 302 301 303 304 307 505 308 309 310 311 312 313 305 306 319 321 320 318 317 316 314 315 374 373 322 323 324 325 326 327 328 329 366 367 365 368 369 370 372 371 396 395 375 376 377 378 379 380 381 445 444 443 442 446 447 448 449 450 451 501 500 499 452 453 441 440 439 454 438 437 436 435 434 433 432 430 431 429 428 427 426 420 421 422 423 424 425 382 386 387 388 389 390 392 391 393 394 397 398 399 400 404 405 406 407 408 385 383 384 409 403 402 401 360 359 358 357 356 412 411 410 418 419 417 413 414 416 415 353 355 354 352 351 350 349 348 347 362 361 363 364 346 345 344 343 342 330 331 332 340 341 339 338 337 336 333 335 334 283 284 285 286 287 280 281 282 279 278 277 276 288 289 290 291